Minimize
  - 11 y_0 - 9 y_1 - 9 y_2 - 4 y_3 - 6 y_4 - 8 y_5 - 6 y_6 - 2 y_7 - 9 y_8
   - 3 y_9 - 9 y_10 - 12 y_11 - 6 y_12 - 7 y_13 - 13 y_14 - 10 y_15
   - 5 y_16 - 3 y_17 - y_18 - 6 y_19 - 5 y_20 - 10 y_21 - 12 y_22 - 3 y_23
   - 5 y_24 - 10 y_25 - 9 y_26 - 13 y_27 - 8 y_28 - 4 y_29 - 7 y_30
   - 5 y_31 - 13 y_32 - 7 y_33 - 10 y_34 - 8 y_35 - 9 y_36 - 3 y_37
   - 8 y_38 - 11 y_39 - 13 y_40 - 5 y_41 - 5 y_42 - 2 y_43 - 8 y_44
   - 9 y_45 - 5 y_46 - 2 y_47 - 12 y_48 - 4 y_49 - 9 y_50 - 2 y_51
   - 11 y_52 - 6 y_53 - 4 y_54 - 10 y_55 - 6 y_56 - 5 y_57 - 8 y_58
   - 11 y_59 - 12 y_61 - 8 y_62 - 10 y_63 - 5 y_64 - 9 y_65 - 7 y_66
   - 8 y_67 - 8 y_68 - 2 y_69 - 7 y_70 - 8 y_71 - 5 y_72 - 7 y_73 - 10 y_74
   - 10 y_75 - 5 y_76 - 8 y_77 - 4 y_78 - 7 y_79 - 9 y_80 - 9 y_81 - 8 y_82
   - 11 y_83 - 3 y_84 - 6 y_85 - 9 y_86 - 3 y_87 - 9 y_88 - 11 y_89
   - 8 y_90 - 6 y_91 - 10 y_92 - 5 y_93 - 5 y_94 - 8 y_95 - 7 y_96 - 2 y_97
   - 9 y_98 - 8 y_99 + 722 Constant
Subject To
 c_0: y_53 = 1
 c_1_0: y_0 + y_21 + y_39 + y_55 + y_63 >= 1
 c_1_1: y_1 + y_58 + y_81 + y_86 >= 1
 c_1_2: y_2 + y_10 + y_95 >= 1
 c_1_3: y_3 + y_9 + y_54 + y_72 >= 1
 c_1_4: y_4 + y_46 >= 1
 c_1_5: y_5 + y_28 + y_62 + y_73 >= 1
 c_1_6: y_6 + y_42 + y_93 + y_94 >= 1
 c_1_7: y_7 + y_18 + y_37 + y_69 + y_97 >= 1
 c_1_8: y_8 + y_15 + y_25 + y_26 + y_36 + y_50 + y_68 >= 1
 c_1_9: y_3 + y_9 + y_37 >= 1
 c_1_10: y_2 + y_10 + y_26 + y_95 >= 1
 c_1_11: y_11 + y_22 + y_27 + y_48 + y_52 + y_59 >= 1
 c_1_12: y_12 + y_16 + y_20 + y_33 + y_41 + y_53 + y_56 + y_64 + y_91 >= 1
 c_1_13: y_13 + y_30 + y_35 + y_73 + y_96 >= 1
 c_1_14: y_14 + y_27 + y_32 + y_40 + y_61 >= 1
 c_1_15: y_8 + y_15 + y_25 + y_36 + y_50 >= 1
 c_1_16: y_12 + y_16 + y_20 + y_41 + y_56 + y_64 + y_72 + y_91 >= 1
 c_1_17: y_17 + y_23 + y_29 + y_78 + y_84 >= 1
 c_1_18: y_7 + y_18 + y_43 + y_51 + y_97 >= 1
 c_1_19: y_19 + y_85 >= 1
 c_1_20: y_12 + y_16 + y_20 + y_41 + y_56 + y_64 + y_91 >= 1
 c_1_21: y_0 + y_21 + y_39 + y_55 + y_63 >= 1
 c_1_22: y_11 + y_22 + y_27 + y_48 + y_52 >= 1
 c_1_23: y_17 + y_23 + y_29 + y_47 + y_78 + y_84 >= 1
 c_1_24: y_24 + y_93 + y_94 >= 1
 c_1_25: y_8 + y_15 + y_25 + y_36 + y_50 >= 1
 c_1_26: y_8 + y_10 + y_26 + y_50 >= 1
 c_1_27: y_11 + y_14 + y_22 + y_27 + y_32 + y_40 >= 1
 c_1_28: y_5 + y_28 + y_35 + y_62 + y_73 >= 1
 c_1_29: y_17 + y_23 + y_29 + y_78 >= 1
 c_1_30: y_13 + y_30 + y_70 + y_73 >= 1
 c_1_31: y_31 + y_49 + y_57 + y_78 >= 1
 c_1_32: y_14 + y_27 + y_32 + y_40 >= 1
 c_1_33: y_12 + y_33 + y_53 + y_56 + y_66 + y_91 >= 1
 c_1_34: y_34 >= 1
 c_1_35: y_13 + y_28 + y_35 + y_73 + y_96 >= 1
 c_1_36: y_8 + y_15 + y_25 + y_36 + y_50 + y_68 >= 1
 c_1_37: y_7 + y_9 + y_37 + y_87 >= 1
 c_1_38: y_38 >= 1
 c_1_39: y_0 + y_21 + y_39 + y_55 + y_63 >= 1
 c_1_40: y_14 + y_27 + y_32 + y_40 >= 1
 c_1_41: y_12 + y_16 + y_20 + y_41 + y_56 + y_64 + y_72 >= 1
 c_1_42: y_6 + y_42 + y_93 + y_94 >= 1
 c_1_43: y_18 + y_43 + y_47 + y_51 >= 1
 c_1_44: y_44 + y_66 + y_90 >= 1
 c_1_45: y_45 + y_88 >= 1
 c_1_46: y_4 + y_46 >= 1
 c_1_47: y_23 + y_43 + y_47 + y_51 >= 1
 c_1_48: y_11 + y_22 + y_48 + y_52 >= 1
 c_1_49: y_31 + y_49 + y_57 + y_78 + y_84 >= 1
 c_1_50: y_8 + y_15 + y_25 + y_26 + y_36 + y_50 >= 1
 c_1_51: y_18 + y_43 + y_47 + y_51 + y_69 >= 1
 c_1_52: y_11 + y_22 + y_48 + y_52 >= 1
 c_1_53: y_12 + y_33 + y_53 + y_56 + y_64 + y_66 + y_91 >= 1
 c_1_54: y_3 + y_54 + y_76 >= 1
 c_1_55: y_0 + y_21 + y_39 + y_55 + y_63 + y_98 >= 1
 c_1_56: y_12 + y_16 + y_20 + y_33 + y_41 + y_53 + y_56 + y_64 + y_91 >= 1
 c_1_57: y_31 + y_49 + y_57 >= 1
 c_1_58: y_1 + y_58 + y_86 + y_99 >= 1
 c_1_59: y_11 + y_59 >= 1
 c_1_60: y_60 >= 1
 c_1_61: y_14 + y_61 >= 1
 c_1_62: y_5 + y_28 + y_62 >= 1
 c_1_63: y_0 + y_21 + y_39 + y_55 + y_63 + y_98 >= 1
 c_1_64: y_12 + y_16 + y_20 + y_41 + y_53 + y_56 + y_64 + y_91 >= 1
 c_1_65: y_65 + y_80 + y_90 + y_98 >= 1
 c_1_66: y_33 + y_44 + y_53 + y_66 >= 1
 c_1_67: y_67 + y_95 >= 1
 c_1_68: y_8 + y_36 + y_68 + y_77 >= 1
 c_1_69: y_7 + y_51 + y_69 >= 1
 c_1_70: y_30 + y_70 + y_85 >= 1
 c_1_71: y_71 >= 1
 c_1_72: y_3 + y_16 + y_41 + y_72 >= 1
 c_1_73: y_5 + y_13 + y_28 + y_30 + y_35 + y_73 >= 1
 c_1_74: y_74 >= 1
 c_1_75: y_75 + y_83 + y_89 >= 1
 c_1_76: y_54 + y_76 >= 1
 c_1_77: y_68 + y_77 >= 1
 c_1_78: y_17 + y_23 + y_29 + y_31 + y_49 + y_78 + y_84 >= 1
 c_1_79: y_79 + y_82 + y_99 >= 1
 c_1_80: y_65 + y_80 + y_90 + y_98 >= 1
 c_1_81: y_1 + y_81 + y_86 + y_92 >= 1
 c_1_82: y_79 + y_82 + y_99 >= 1
 c_1_83: y_75 + y_83 + y_89 >= 1
 c_1_84: y_17 + y_23 + y_49 + y_78 + y_84 >= 1
 c_1_85: y_19 + y_70 + y_85 >= 1
 c_1_86: y_1 + y_58 + y_81 + y_86 >= 1
 c_1_87: y_37 + y_87 >= 1
 c_1_88: y_45 + y_88 >= 1
 c_1_89: y_75 + y_83 + y_89 >= 1
 c_1_90: y_44 + y_65 + y_80 + y_90 >= 1
 c_1_91: y_12 + y_16 + y_20 + y_33 + y_53 + y_56 + y_64 + y_91 >= 1
 c_1_92: y_81 + y_92 >= 1
 c_1_93: y_6 + y_24 + y_42 + y_93 + y_94 >= 1
 c_1_94: y_6 + y_24 + y_42 + y_93 + y_94 >= 1
 c_1_95: y_2 + y_10 + y_67 + y_95 >= 1
 c_1_96: y_13 + y_35 + y_96 >= 1
 c_1_97: y_7 + y_18 + y_97 >= 1
 c_1_98: y_55 + y_63 + y_65 + y_80 + y_98 >= 1
 c_1_99: y_58 + y_79 + y_82 + y_99 >= 1
Bounds
 Constant = 1
Binaries
 y_0 y_1 y_2 y_3 y_4 y_5 y_6 y_7 y_8 y_9 y_10 y_11 y_12 y_13 y_14 y_15 y_16
 y_17 y_18 y_19 y_20 y_21 y_22 y_23 y_24 y_25 y_26 y_27 y_28 y_29 y_30 y_31
 y_32 y_33 y_34 y_35 y_36 y_37 y_38 y_39 y_40 y_41 y_42 y_43 y_44 y_45 y_46
 y_47 y_48 y_49 y_50 y_51 y_52 y_53 y_54 y_55 y_56 y_57 y_58 y_59 y_60 y_61
 y_62 y_63 y_64 y_65 y_66 y_67 y_68 y_69 y_70 y_71 y_72 y_73 y_74 y_75 y_76
 y_77 y_78 y_79 y_80 y_81 y_82 y_83 y_84 y_85 y_86 y_87 y_88 y_89 y_90 y_91
 y_92 y_93 y_94 y_95 y_96 y_97 y_98 y_99
End
